experiments/sat_smt/run/sat-r/results/zoe_richard.res
solved=true
solvingTime=600.8441162109375
nActions=17