experiments/sat_smt/run/sat-r/results/zoe_richard.out
Timesteps: 1
s UNSATISFIABLE
real 0.21
user 0.02
sys 0.00
Timesteps: 2
s UNSATISFIABLE
real 0.21
user 0.05
sys 0.00
Timesteps: 3
s UNSATISFIABLE
real 0.28
user 0.10
sys 0.01
Timesteps: 4
s UNSATISFIABLE
real 0.31
user 0.16
sys 0.00
Timesteps: 5
s UNSATISFIABLE
real 0.35
user 0.20
sys 0.01
Timesteps: 6
s UNSATISFIABLE
real 0.62
user 0.38
sys 0.02
Timesteps: 7
s UNSATISFIABLE
real 0.65
user 0.41
sys 0.02
Timesteps: 8
s UNSATISFIABLE
real 1.64
user 1.00
sys 0.02
Timesteps: 9
s UNSATISFIABLE
real 3.30
user 2.56
sys 0.03
Timesteps: 10
s UNSATISFIABLE
real 7.12
user 6.34
sys 0.03
Timesteps: 11
s UNSATISFIABLE
real 16.16
user 15.20
sys 0.05
Timesteps: 12
s UNSATISFIABLE
real 32.31
user 31.18
sys 0.08
Timesteps: 13
s UNSATISFIABLE
real 40.93
user 39.61
sys 0.10
Timesteps: 14
s UNSATISFIABLE
real 65.62
user 64.10
sys 0.11
Timesteps: 15
s UNSATISFIABLE
real 106.03
user 104.19
sys 0.16
Timesteps: 16
s UNSATISFIABLE
real 281.22
user 278.59
sys 0.26
Timesteps: 17
s SATISFIABLE
real 50.98
user 50.16
sys 0.10
